; benchmark generated from python API
(set-info :status unknown)
(declare-fun x_months () Int)
(declare-fun x_beta () Int)
(declare-fun y_months () Int)
(declare-fun y_beta () Int)
(assert
 (<= (- 1200) x_months))
(assert
 (>= 1199 x_months))
(assert
 (let ((?x5391 (mod x_months 48)))
 (let ((?x211 ((as const (Array Int Int)) 0)))
 (let ((?x213 (store ?x211 0 31)))
 (let ((?x216 (store ?x213 1 30)))
 (let ((?x218 (store ?x216 2 31)))
 (let ((?x220 (store ?x218 3 30)))
 (let ((?x222 (store ?x220 4 31)))
 (let ((?x224 (store ?x222 5 31)))
 (let ((?x226 (store ?x224 6 30)))
 (let ((?x228 (store ?x226 7 31)))
 (let ((?x230 (store ?x228 8 30)))
 (let ((?x232 (store ?x230 9 31)))
 (let ((?x234 (store ?x232 10 31)))
 (let ((?x237 (store ?x234 11 28)))
 (let ((?x239 (store ?x237 12 31)))
 (let ((?x241 (store ?x239 13 30)))
 (let ((?x243 (store ?x241 14 31)))
 (let ((?x245 (store ?x243 15 30)))
 (let ((?x247 (store ?x245 16 31)))
 (let ((?x249 (store ?x247 17 31)))
 (let ((?x251 (store ?x249 18 30)))
 (let ((?x253 (store ?x251 19 31)))
 (let ((?x255 (store ?x253 20 30)))
 (let ((?x257 (store ?x255 21 31)))
 (let ((?x259 (store ?x257 22 31)))
 (let ((?x261 (store ?x259 23 28)))
 (let ((?x263 (store ?x261 24 31)))
 (let ((?x265 (store ?x263 25 30)))
 (let ((?x267 (store ?x265 26 31)))
 (let ((?x269 (store ?x267 27 30)))
 (let ((?x270 (store ?x269 28 31)))
 (let ((?x272 (store ?x270 29 31)))
 (let ((?x273 (store ?x272 30 30)))
 (let ((?x274 (store ?x273 31 31)))
 (let ((?x276 (store ?x274 32 30)))
 (let ((?x278 (store ?x276 33 31)))
 (let ((?x280 (store ?x278 34 31)))
 (let ((?x282 (store ?x280 35 28)))
 (let ((?x284 (store ?x282 36 31)))
 (let ((?x286 (store ?x284 37 30)))
 (let ((?x288 (store ?x286 38 31)))
 (let ((?x290 (store ?x288 39 30)))
 (let ((?x292 (store ?x290 40 31)))
 (let ((?x294 (store ?x292 41 31)))
 (let ((?x296 (store ?x294 42 30)))
 (let ((?x298 (store ?x296 43 31)))
 (let ((?x300 (store ?x298 44 30)))
 (let ((?x302 (store ?x300 45 31)))
 (let ((?x304 (store ?x302 46 31)))
 (let ((?x306 (store ?x304 47 29)))
 (let ((?x5773 (select ?x306 ?x5391)))
 (let ((?x4379 (ite (or (= 22802 (+ x_months 24003)) (= 25202 (+ x_months 24003))) 28 ?x5773)))
 (let (($x4827 (<= 0 x_beta)))
 (and $x4827 (< x_beta ?x4379))))))))))))))))))))))))))))))))))))))))))))))))))))))))
(assert
 (<= (- 1200) y_months))
(assert
 (>= 1199 y_months))
(assert
 (let ((?x4535 (mod y_months 48)))
 (let ((?x211 ((as const (Array Int Int)) 0)))
 (let ((?x213 (store ?x211 0 31)))
 (let ((?x216 (store ?x213 1 30)))
 (let ((?x218 (store ?x216 2 31)))
 (let ((?x220 (store ?x218 3 30)))
 (let ((?x222 (store ?x220 4 31)))
 (let ((?x224 (store ?x222 5 31)))
 (let ((?x226 (store ?x224 6 30)))
 (let ((?x228 (store ?x226 7 31)))
 (let ((?x230 (store ?x228 8 30)))
 (let ((?x232 (store ?x230 9 31)))
 (let ((?x234 (store ?x232 10 31)))
 (let ((?x237 (store ?x234 11 28)))
 (let ((?x239 (store ?x237 12 31)))
 (let ((?x241 (store ?x239 13 30)))
 (let ((?x243 (store ?x241 14 31)))
 (let ((?x245 (store ?x243 15 30)))
 (let ((?x247 (store ?x245 16 31)))
 (let ((?x249 (store ?x247 17 31)))
 (let ((?x251 (store ?x249 18 30)))
 (let ((?x253 (store ?x251 19 31)))
 (let ((?x255 (store ?x253 20 30)))
 (let ((?x257 (store ?x255 21 31)))
 (let ((?x259 (store ?x257 22 31)))
 (let ((?x261 (store ?x259 23 28)))
 (let ((?x263 (store ?x261 24 31)))
 (let ((?x265 (store ?x263 25 30)))
 (let ((?x267 (store ?x265 26 31)))
 (let ((?x269 (store ?x267 27 30)))
 (let ((?x270 (store ?x269 28 31)))
 (let ((?x272 (store ?x270 29 31)))
 (let ((?x273 (store ?x272 30 30)))
 (let ((?x274 (store ?x273 31 31)))
 (let ((?x276 (store ?x274 32 30)))
 (let ((?x278 (store ?x276 33 31)))
 (let ((?x280 (store ?x278 34 31)))
 (let ((?x282 (store ?x280 35 28)))
 (let ((?x284 (store ?x282 36 31)))
 (let ((?x286 (store ?x284 37 30)))
 (let ((?x288 (store ?x286 38 31)))
 (let ((?x290 (store ?x288 39 30)))
 (let ((?x292 (store ?x290 40 31)))
 (let ((?x294 (store ?x292 41 31)))
 (let ((?x296 (store ?x294 42 30)))
 (let ((?x298 (store ?x296 43 31)))
 (let ((?x300 (store ?x298 44 30)))
 (let ((?x302 (store ?x300 45 31)))
 (let ((?x304 (store ?x302 46 31)))
 (let ((?x306 (store ?x304 47 29)))
 (let ((?x4302 (select ?x306 ?x4535)))
 (let ((?x3527 (ite (or (= 22802 (+ y_months 24003)) (= 25202 (+ y_months 24003))) 28 ?x4302)))
 (and (<= 0 y_beta) (< y_beta ?x3527)))))))))))))))))))))))))))))))))))))))))))))))))))))))
(assert
 (let (($x2816 (and (= x_months (- (+ (* 2019 12) 12) 24003)) (<= 30 x_beta))))
 (or (> x_months (- (+ (* 2019 12) 12) 24003)) $x2816)))
(assert
 (let (($x5253 (and (= x_months (- (+ (* 2020 12) 2) 24003)) (>= 0 x_beta))))
 (or (< x_months (- (+ (* 2020 12) 2) 24003)) $x5253)))
(assert
 (let ((?x5047 (+ x_months 12)))
 (let ((?x2148 (mod ?x5047 48)))
 (let ((?x2524 (ite (> 22803 (+ ?x5047 24003)) 1 (ite (<= 25203 (+ ?x5047 24003)) (- 1) 0))))
 (let ((?x211 ((as const (Array Int Int)) 0)))
 (let ((?x213 (store ?x211 0 31)))
 (let ((?x216 (store ?x213 1 30)))
 (let ((?x218 (store ?x216 2 31)))
 (let ((?x220 (store ?x218 3 30)))
 (let ((?x222 (store ?x220 4 31)))
 (let ((?x224 (store ?x222 5 31)))
 (let ((?x226 (store ?x224 6 30)))
 (let ((?x228 (store ?x226 7 31)))
 (let ((?x230 (store ?x228 8 30)))
 (let ((?x232 (store ?x230 9 31)))
 (let ((?x234 (store ?x232 10 31)))
 (let ((?x237 (store ?x234 11 28)))
 (let ((?x239 (store ?x237 12 31)))
 (let ((?x241 (store ?x239 13 30)))
 (let ((?x243 (store ?x241 14 31)))
 (let ((?x245 (store ?x243 15 30)))
 (let ((?x247 (store ?x245 16 31)))
 (let ((?x249 (store ?x247 17 31)))
 (let ((?x251 (store ?x249 18 30)))
 (let ((?x253 (store ?x251 19 31)))
 (let ((?x255 (store ?x253 20 30)))
 (let ((?x257 (store ?x255 21 31)))
 (let ((?x259 (store ?x257 22 31)))
 (let ((?x261 (store ?x259 23 28)))
 (let ((?x263 (store ?x261 24 31)))
 (let ((?x265 (store ?x263 25 30)))
 (let ((?x267 (store ?x265 26 31)))
 (let ((?x269 (store ?x267 27 30)))
 (let ((?x270 (store ?x269 28 31)))
 (let ((?x272 (store ?x270 29 31)))
 (let ((?x273 (store ?x272 30 30)))
 (let ((?x274 (store ?x273 31 31)))
 (let ((?x276 (store ?x274 32 30)))
 (let ((?x278 (store ?x276 33 31)))
 (let ((?x280 (store ?x278 34 31)))
 (let ((?x282 (store ?x280 35 28)))
 (let ((?x284 (store ?x282 36 31)))
 (let ((?x286 (store ?x284 37 30)))
 (let ((?x288 (store ?x286 38 31)))
 (let ((?x290 (store ?x288 39 30)))
 (let ((?x292 (store ?x290 40 31)))
 (let ((?x294 (store ?x292 41 31)))
 (let ((?x296 (store ?x294 42 30)))
 (let ((?x298 (store ?x296 43 31)))
 (let ((?x300 (store ?x298 44 30)))
 (let ((?x302 (store ?x300 45 31)))
 (let ((?x304 (store ?x302 46 31)))
 (let ((?x306 (store ?x304 47 29)))
 (let ((?x2082 (ite (or (= 22802 (+ ?x5047 24003)) (= 25202 (+ ?x5047 24003))) 28 (select ?x306 ?x2148))))
 (let ((?x5608 (- ?x2082 1)))
 (let (($x3505 (> 0 x_beta)))
 (let ((?x312 (store (store (store (store ?x211 0 0) 1 31) 2 61) 3 92)))
 (let ((?x320 (store (store (store (store ?x312 4 122) 5 153) 6 184) 7 214)))
 (let ((?x328 (store (store (store (store ?x320 8 245) 9 275) 10 306) 11 337)))
 (let ((?x336 (store (store (store (store ?x328 12 365) 13 396) 14 426) 15 457)))
 (let ((?x344 (store (store (store (store ?x336 16 487) 17 518) 18 549) 19 579)))
 (let ((?x352 (store (store (store (store ?x344 20 610) 21 640) 22 671) 23 702)))
 (let ((?x360 (store (store (store (store ?x352 24 730) 25 761) 26 791) 27 822)))
 (let ((?x368 (store (store (store (store ?x360 28 852) 29 883) 30 914) 31 944)))
 (let ((?x376 (store (store (store (store ?x368 32 975) 33 1005) 34 1036) 35 1067)))
 (let ((?x384 (store (store (store (store ?x376 36 1095) 37 1126) 38 1156) 39 1187)))
 (let ((?x392 (store (store (store (store ?x384 40 1217) 41 1248) 42 1279) 43 1309)))
 (let ((?x400 (store (store (store (store ?x392 44 1340) 45 1370) 46 1401) 47 1432)))
 (let ((?x1884 (+ (select ?x400 ?x2148) (ite $x3505 0 (ite (> x_beta ?x5608) ?x5608 x_beta)))))
 (let ((?x2018 (+ (+ ?x1884 ?x2524) 0)))
 (let ((?x2053 (+ ?x5047 (* (div ?x2018 1461) 48))))
 (let ((?x2654 (+ (+ ?x2053 (- 1 ?x2148)) 24003)))
 (let ((?x4389 (select ?x400 1)))
 (let ((?x2273 (mod ?x2018 1461)))
 (let (($x2462 (>= ?x2273 (+ ?x4389 (ite (> 22803 ?x2654) 1 (ite (<= 25203 ?x2654) (- 1) 0))))))
 (let ((?x4596 (ite (> 22803 (+ (+ ?x2053 (- 2 ?x2148)) 24003)) 1 (ite (<= 25203 (+ (+ ?x2053 (- 2 ?x2148)) 24003)) (- 1) 0))))
 (let ((?x4598 (select ?x400 2)))
 (let ((?x910 (ite (> 22803 (+ (+ ?x2053 (- 3 ?x2148)) 24003)) 1 (ite (<= 25203 (+ (+ ?x2053 (- 3 ?x2148)) 24003)) (- 1) 0))))
 (let ((?x1909 (select ?x400 3)))
 (let ((?x1555 (ite (>= ?x2273 (+ ?x1909 ?x910)) 3 (ite (>= ?x2273 (+ ?x4598 ?x4596)) 2 (ite $x2462 1 0)))))
 (let ((?x1240 (ite (> 22803 (+ (+ ?x2053 (- 4 ?x2148)) 24003)) 1 (ite (<= 25203 (+ (+ ?x2053 (- 4 ?x2148)) 24003)) (- 1) 0))))
 (let ((?x2001 (select ?x400 4)))
 (let ((?x3149 (ite (> 22803 (+ (+ ?x2053 (- 5 ?x2148)) 24003)) 1 (ite (<= 25203 (+ (+ ?x2053 (- 5 ?x2148)) 24003)) (- 1) 0))))
 (let ((?x1365 (select ?x400 5)))
 (let ((?x2603 (ite (>= ?x2273 (+ ?x1365 ?x3149)) 5 (ite (>= ?x2273 (+ ?x2001 ?x1240)) 4 ?x1555))))
 (let ((?x3268 (ite (> 22803 (+ (+ ?x2053 (- 6 ?x2148)) 24003)) 1 (ite (<= 25203 (+ (+ ?x2053 (- 6 ?x2148)) 24003)) (- 1) 0))))
 (let ((?x680 (select ?x400 6)))
 (let ((?x3580 (ite (> 22803 (+ (+ ?x2053 (- 7 ?x2148)) 24003)) 1 (ite (<= 25203 (+ (+ ?x2053 (- 7 ?x2148)) 24003)) (- 1) 0))))
 (let ((?x1858 (select ?x400 7)))
 (let ((?x2881 (ite (>= ?x2273 (+ ?x1858 ?x3580)) 7 (ite (>= ?x2273 (+ ?x680 ?x3268)) 6 ?x2603))))
 (let ((?x2118 (ite (> 22803 (+ (+ ?x2053 (- 8 ?x2148)) 24003)) 1 (ite (<= 25203 (+ (+ ?x2053 (- 8 ?x2148)) 24003)) (- 1) 0))))
 (let ((?x4068 (select ?x400 8)))
 (let ((?x2745 (ite (> 22803 (+ (+ ?x2053 (- 9 ?x2148)) 24003)) 1 (ite (<= 25203 (+ (+ ?x2053 (- 9 ?x2148)) 24003)) (- 1) 0))))
 (let ((?x3809 (select ?x400 9)))
 (let ((?x1696 (ite (>= ?x2273 (+ ?x3809 ?x2745)) 9 (ite (>= ?x2273 (+ ?x4068 ?x2118)) 8 ?x2881))))
 (let ((?x5811 (ite (> 22803 (+ (+ ?x2053 (- 10 ?x2148)) 24003)) 1 (ite (<= 25203 (+ (+ ?x2053 (- 10 ?x2148)) 24003)) (- 1) 0))))
 (let ((?x3610 (select ?x400 10)))
 (let ((?x2002 (ite (> 22803 (+ (+ ?x2053 (- 11 ?x2148)) 24003)) 1 (ite (<= 25203 (+ (+ ?x2053 (- 11 ?x2148)) 24003)) (- 1) 0))))
 (let ((?x4043 (select ?x400 11)))
 (let ((?x4322 (ite (>= ?x2273 (+ ?x4043 ?x2002)) 11 (ite (>= ?x2273 (+ ?x3610 ?x5811)) 10 ?x1696))))
 (let ((?x2798 (ite (> 22803 (+ (+ ?x2053 (- 12 ?x2148)) 24003)) 1 (ite (<= 25203 (+ (+ ?x2053 (- 12 ?x2148)) 24003)) (- 1) 0))))
 (let ((?x3365 (select ?x400 12)))
 (let ((?x3101 (ite (> 22803 (+ (+ ?x2053 (- 13 ?x2148)) 24003)) 1 (ite (<= 25203 (+ (+ ?x2053 (- 13 ?x2148)) 24003)) (- 1) 0))))
 (let ((?x4390 (select ?x400 13)))
 (let ((?x5785 (ite (>= ?x2273 (+ ?x4390 ?x3101)) 13 (ite (>= ?x2273 (+ ?x3365 ?x2798)) 12 ?x4322))))
 (let ((?x2252 (ite (> 22803 (+ (+ ?x2053 (- 14 ?x2148)) 24003)) 1 (ite (<= 25203 (+ (+ ?x2053 (- 14 ?x2148)) 24003)) (- 1) 0))))
 (let ((?x4887 (select ?x400 14)))
 (let ((?x2931 (ite (> 22803 (+ (+ ?x2053 (- 15 ?x2148)) 24003)) 1 (ite (<= 25203 (+ (+ ?x2053 (- 15 ?x2148)) 24003)) (- 1) 0))))
 (let ((?x6278 (select ?x400 15)))
 (let ((?x1087 (ite (>= ?x2273 (+ ?x6278 ?x2931)) 15 (ite (>= ?x2273 (+ ?x4887 ?x2252)) 14 ?x5785))))
 (let ((?x4357 (ite (> 22803 (+ (+ ?x2053 (- 16 ?x2148)) 24003)) 1 (ite (<= 25203 (+ (+ ?x2053 (- 16 ?x2148)) 24003)) (- 1) 0))))
 (let ((?x3980 (select ?x400 16)))
 (let ((?x6860 (ite (> 22803 (+ (+ ?x2053 (- 17 ?x2148)) 24003)) 1 (ite (<= 25203 (+ (+ ?x2053 (- 17 ?x2148)) 24003)) (- 1) 0))))
 (let ((?x5343 (select ?x400 17)))
 (let ((?x4967 (ite (>= ?x2273 (+ ?x5343 ?x6860)) 17 (ite (>= ?x2273 (+ ?x3980 ?x4357)) 16 ?x1087))))
 (let ((?x4658 (ite (> 22803 (+ (+ ?x2053 (- 18 ?x2148)) 24003)) 1 (ite (<= 25203 (+ (+ ?x2053 (- 18 ?x2148)) 24003)) (- 1) 0))))
 (let ((?x6875 (select ?x400 18)))
 (let ((?x6758 (ite (> 22803 (+ (+ ?x2053 (- 19 ?x2148)) 24003)) 1 (ite (<= 25203 (+ (+ ?x2053 (- 19 ?x2148)) 24003)) (- 1) 0))))
 (let ((?x536 (select ?x400 19)))
 (let ((?x5561 (ite (>= ?x2273 (+ ?x536 ?x6758)) 19 (ite (>= ?x2273 (+ ?x6875 ?x4658)) 18 ?x4967))))
 (let ((?x6859 (ite (> 22803 (+ (+ ?x2053 (- 20 ?x2148)) 24003)) 1 (ite (<= 25203 (+ (+ ?x2053 (- 20 ?x2148)) 24003)) (- 1) 0))))
 (let ((?x2973 (select ?x400 20)))
 (let ((?x5707 (ite (> 22803 (+ (+ ?x2053 (- 21 ?x2148)) 24003)) 1 (ite (<= 25203 (+ (+ ?x2053 (- 21 ?x2148)) 24003)) (- 1) 0))))
 (let ((?x5687 (select ?x400 21)))
 (let ((?x5212 (ite (>= ?x2273 (+ ?x5687 ?x5707)) 21 (ite (>= ?x2273 (+ ?x2973 ?x6859)) 20 ?x5561))))
 (let ((?x2790 (ite (> 22803 (+ (+ ?x2053 (- 22 ?x2148)) 24003)) 1 (ite (<= 25203 (+ (+ ?x2053 (- 22 ?x2148)) 24003)) (- 1) 0))))
 (let ((?x1621 (select ?x400 22)))
 (let ((?x4889 (ite (> 22803 (+ (+ ?x2053 (- 23 ?x2148)) 24003)) 1 (ite (<= 25203 (+ (+ ?x2053 (- 23 ?x2148)) 24003)) (- 1) 0))))
 (let ((?x4868 (select ?x400 23)))
 (let ((?x4854 (ite (>= ?x2273 (+ ?x4868 ?x4889)) 23 (ite (>= ?x2273 (+ ?x1621 ?x2790)) 22 ?x5212))))
 (let ((?x5475 (ite (> 22803 (+ (+ ?x2053 (- 24 ?x2148)) 24003)) 1 (ite (<= 25203 (+ (+ ?x2053 (- 24 ?x2148)) 24003)) (- 1) 0))))
 (let ((?x4428 (select ?x400 24)))
 (let ((?x992 (ite (> 22803 (+ (+ ?x2053 (- 25 ?x2148)) 24003)) 1 (ite (<= 25203 (+ (+ ?x2053 (- 25 ?x2148)) 24003)) (- 1) 0))))
 (let ((?x4346 (select ?x400 25)))
 (let ((?x4742 (ite (>= ?x2273 (+ ?x4346 ?x992)) 25 (ite (>= ?x2273 (+ ?x4428 ?x5475)) 24 ?x4854))))
 (let ((?x5410 (ite (> 22803 (+ (+ ?x2053 (- 26 ?x2148)) 24003)) 1 (ite (<= 25203 (+ (+ ?x2053 (- 26 ?x2148)) 24003)) (- 1) 0))))
 (let ((?x3431 (select ?x400 26)))
 (let ((?x3378 (ite (> 22803 (+ (+ ?x2053 (- 27 ?x2148)) 24003)) 1 (ite (<= 25203 (+ (+ ?x2053 (- 27 ?x2148)) 24003)) (- 1) 0))))
 (let ((?x3825 (select ?x400 27)))
 (let ((?x6229 (ite (>= ?x2273 (+ ?x3825 ?x3378)) 27 (ite (>= ?x2273 (+ ?x3431 ?x5410)) 26 ?x4742))))
 (let ((?x1343 (ite (> 22803 (+ (+ ?x2053 (- 28 ?x2148)) 24003)) 1 (ite (<= 25203 (+ (+ ?x2053 (- 28 ?x2148)) 24003)) (- 1) 0))))
 (let ((?x4208 (select ?x400 28)))
 (let ((?x5861 (ite (> 22803 (+ (+ ?x2053 (- 29 ?x2148)) 24003)) 1 (ite (<= 25203 (+ (+ ?x2053 (- 29 ?x2148)) 24003)) (- 1) 0))))
 (let ((?x5905 (select ?x400 29)))
 (let ((?x5141 (ite (>= ?x2273 (+ ?x5905 ?x5861)) 29 (ite (>= ?x2273 (+ ?x4208 ?x1343)) 28 ?x6229))))
 (let ((?x3336 (ite (> 22803 (+ (+ ?x2053 (- 30 ?x2148)) 24003)) 1 (ite (<= 25203 (+ (+ ?x2053 (- 30 ?x2148)) 24003)) (- 1) 0))))
 (let ((?x2488 (select ?x400 30)))
 (let ((?x1239 (ite (> 22803 (+ (+ ?x2053 (- 31 ?x2148)) 24003)) 1 (ite (<= 25203 (+ (+ ?x2053 (- 31 ?x2148)) 24003)) (- 1) 0))))
 (let ((?x4913 (select ?x400 31)))
 (let ((?x1332 (ite (>= ?x2273 (+ ?x4913 ?x1239)) 31 (ite (>= ?x2273 (+ ?x2488 ?x3336)) 30 ?x5141))))
 (let ((?x4654 (ite (> 22803 (+ (+ ?x2053 (- 32 ?x2148)) 24003)) 1 (ite (<= 25203 (+ (+ ?x2053 (- 32 ?x2148)) 24003)) (- 1) 0))))
 (let ((?x5140 (select ?x400 32)))
 (let ((?x5323 (ite (> 22803 (+ (+ ?x2053 (- 33 ?x2148)) 24003)) 1 (ite (<= 25203 (+ (+ ?x2053 (- 33 ?x2148)) 24003)) (- 1) 0))))
 (let ((?x3668 (select ?x400 33)))
 (let ((?x2547 (ite (>= ?x2273 (+ ?x3668 ?x5323)) 33 (ite (>= ?x2273 (+ ?x5140 ?x4654)) 32 ?x1332))))
 (let ((?x3124 (ite (> 22803 (+ (+ ?x2053 (- 34 ?x2148)) 24003)) 1 (ite (<= 25203 (+ (+ ?x2053 (- 34 ?x2148)) 24003)) (- 1) 0))))
 (let ((?x5435 (select ?x400 34)))
 (let ((?x4038 (ite (> 22803 (+ (+ ?x2053 (- 35 ?x2148)) 24003)) 1 (ite (<= 25203 (+ (+ ?x2053 (- 35 ?x2148)) 24003)) (- 1) 0))))
 (let ((?x2236 (select ?x400 35)))
 (let ((?x3214 (ite (>= ?x2273 (+ ?x2236 ?x4038)) 35 (ite (>= ?x2273 (+ ?x5435 ?x3124)) 34 ?x2547))))
 (let ((?x5401 (ite (> 22803 (+ (+ ?x2053 (- 36 ?x2148)) 24003)) 1 (ite (<= 25203 (+ (+ ?x2053 (- 36 ?x2148)) 24003)) (- 1) 0))))
 (let ((?x5669 (select ?x400 36)))
 (let ((?x3663 (ite (> 22803 (+ (+ ?x2053 (- 37 ?x2148)) 24003)) 1 (ite (<= 25203 (+ (+ ?x2053 (- 37 ?x2148)) 24003)) (- 1) 0))))
 (let ((?x1651 (select ?x400 37)))
 (let ((?x2564 (ite (>= ?x2273 (+ ?x1651 ?x3663)) 37 (ite (>= ?x2273 (+ ?x5669 ?x5401)) 36 ?x3214))))
 (let ((?x6881 (ite (> 22803 (+ (+ ?x2053 (- 38 ?x2148)) 24003)) 1 (ite (<= 25203 (+ (+ ?x2053 (- 38 ?x2148)) 24003)) (- 1) 0))))
 (let ((?x6885 (select ?x400 38)))
 (let ((?x6111 (ite (> 22803 (+ (+ ?x2053 (- 39 ?x2148)) 24003)) 1 (ite (<= 25203 (+ (+ ?x2053 (- 39 ?x2148)) 24003)) (- 1) 0))))
 (let ((?x1762 (select ?x400 39)))
 (let ((?x6492 (ite (>= ?x2273 (+ ?x1762 ?x6111)) 39 (ite (>= ?x2273 (+ ?x6885 ?x6881)) 38 ?x2564))))
 (let ((?x6620 (ite (> 22803 (+ (+ ?x2053 (- 40 ?x2148)) 24003)) 1 (ite (<= 25203 (+ (+ ?x2053 (- 40 ?x2148)) 24003)) (- 1) 0))))
 (let ((?x4919 (select ?x400 40)))
 (let ((?x5930 (ite (> 22803 (+ (+ ?x2053 (- 41 ?x2148)) 24003)) 1 (ite (<= 25203 (+ (+ ?x2053 (- 41 ?x2148)) 24003)) (- 1) 0))))
 (let ((?x5927 (select ?x400 41)))
 (let ((?x6009 (ite (>= ?x2273 (+ ?x5927 ?x5930)) 41 (ite (>= ?x2273 (+ ?x4919 ?x6620)) 40 ?x6492))))
 (let ((?x3490 (ite (> 22803 (+ (+ ?x2053 (- 42 ?x2148)) 24003)) 1 (ite (<= 25203 (+ (+ ?x2053 (- 42 ?x2148)) 24003)) (- 1) 0))))
 (let ((?x6631 (select ?x400 42)))
 (let ((?x1360 (ite (> 22803 (+ (+ ?x2053 (- 43 ?x2148)) 24003)) 1 (ite (<= 25203 (+ (+ ?x2053 (- 43 ?x2148)) 24003)) (- 1) 0))))
 (let ((?x2554 (select ?x400 43)))
 (let ((?x5365 (ite (>= ?x2273 (+ ?x2554 ?x1360)) 43 (ite (>= ?x2273 (+ ?x6631 ?x3490)) 42 ?x6009))))
 (let ((?x6747 (ite (> 22803 (+ (+ ?x2053 (- 44 ?x2148)) 24003)) 1 (ite (<= 25203 (+ (+ ?x2053 (- 44 ?x2148)) 24003)) (- 1) 0))))
 (let ((?x4572 (select ?x400 44)))
 (let ((?x3099 (ite (> 22803 (+ (+ ?x2053 (- 45 ?x2148)) 24003)) 1 (ite (<= 25203 (+ (+ ?x2053 (- 45 ?x2148)) 24003)) (- 1) 0))))
 (let ((?x6408 (select ?x400 45)))
 (let ((?x2962 (ite (>= ?x2273 (+ ?x6408 ?x3099)) 45 (ite (>= ?x2273 (+ ?x4572 ?x6747)) 44 ?x5365))))
 (let ((?x3793 (ite (> 22803 (+ (+ ?x2053 (- 46 ?x2148)) 24003)) 1 (ite (<= 25203 (+ (+ ?x2053 (- 46 ?x2148)) 24003)) (- 1) 0))))
 (let ((?x6783 (select ?x400 46)))
 (let ((?x5367 (ite (> 22803 (+ (+ ?x2053 (- 47 ?x2148)) 24003)) 1 (ite (<= 25203 (+ (+ ?x2053 (- 47 ?x2148)) 24003)) (- 1) 0))))
 (let ((?x5717 (select ?x400 47)))
 (let ((?x5174 (ite (>= ?x2273 (+ ?x5717 ?x5367)) 47 (ite (>= ?x2273 (+ ?x6783 ?x3793)) 46 ?x2962))))
 (let ((?x3858 (+ ?x2053 (- ?x5174 ?x2148))))
 (let ((?x5077 (+ ?x3858 24003)))
 (let ((?x5645 (+ (select ?x400 ?x5174) (ite (> 22803 ?x5077) 1 (ite (<= 25203 ?x5077) (- 1) 0)))))
 (let ((?x5063 (- ?x2273 ?x5645)))
 (let ((?x4192 (ite (or (= 22802 ?x5077) (= 25202 ?x5077)) 28 (select ?x306 ?x5174))))
 (let (($x3886 (= y_beta (ite (= 1 (ite (>= ?x5063 ?x4192) 1 0)) (- ?x5063 ?x4192) ?x5063))))
 (and (= y_months (+ ?x3858 (ite (>= ?x5063 ?x4192) 1 0))) $x3886)))))))))))))))))))))))))))))))))))))))))))))))))))))))))))))))))))))))))))))))))))))))))))))))))))))))))))))))))))))))))))))))))))))))))))))))))))))))))))))))))))))))))))))))))))))))))))))))))))))
(assert
 (let ((?x6873 (+ x_months 0)))
(let ((?x3131 (mod ?x6873 48)))
(let ((?x1494 (ite (> 22803 (+ ?x6873 24003)) 1 (ite (<= 25203 (+ ?x6873 24003)) (- 1) 0))))
(let ((?x211 ((as const (Array Int Int)) 0)))
(let ((?x213 (store ?x211 0 31)))
(let ((?x216 (store ?x213 1 30)))
(let ((?x218 (store ?x216 2 31)))
(let ((?x220 (store ?x218 3 30)))
(let ((?x222 (store ?x220 4 31)))
(let ((?x224 (store ?x222 5 31)))
(let ((?x226 (store ?x224 6 30)))
(let ((?x228 (store ?x226 7 31)))
(let ((?x230 (store ?x228 8 30)))
(let ((?x232 (store ?x230 9 31)))
(let ((?x234 (store ?x232 10 31)))
(let ((?x237 (store ?x234 11 28)))
(let ((?x239 (store ?x237 12 31)))
(let ((?x241 (store ?x239 13 30)))
(let ((?x243 (store ?x241 14 31)))
(let ((?x245 (store ?x243 15 30)))
(let ((?x247 (store ?x245 16 31)))
(let ((?x249 (store ?x247 17 31)))
(let ((?x251 (store ?x249 18 30)))
(let ((?x253 (store ?x251 19 31)))
(let ((?x255 (store ?x253 20 30)))
(let ((?x257 (store ?x255 21 31)))
(let ((?x259 (store ?x257 22 31)))
(let ((?x261 (store ?x259 23 28)))
(let ((?x263 (store ?x261 24 31)))
(let ((?x265 (store ?x263 25 30)))
(let ((?x267 (store ?x265 26 31)))
(let ((?x269 (store ?x267 27 30)))
(let ((?x270 (store ?x269 28 31)))
(let ((?x272 (store ?x270 29 31)))
(let ((?x273 (store ?x272 30 30)))
(let ((?x274 (store ?x273 31 31)))
(let ((?x276 (store ?x274 32 30)))
(let ((?x278 (store ?x276 33 31)))
(let ((?x280 (store ?x278 34 31)))
(let ((?x282 (store ?x280 35 28)))
(let ((?x284 (store ?x282 36 31)))
(let ((?x286 (store ?x284 37 30)))
(let ((?x288 (store ?x286 38 31)))
(let ((?x290 (store ?x288 39 30)))
(let ((?x292 (store ?x290 40 31)))
(let ((?x294 (store ?x292 41 31)))
(let ((?x296 (store ?x294 42 30)))
(let ((?x298 (store ?x296 43 31)))
(let ((?x300 (store ?x298 44 30)))
(let ((?x302 (store ?x300 45 31)))
(let ((?x304 (store ?x302 46 31)))
(let ((?x306 (store ?x304 47 29)))
(let ((?x3470 (ite (or (= 22802 (+ ?x6873 24003)) (= 25202 (+ ?x6873 24003))) 28 (select ?x306 ?x3131))))
(let ((?x5011 (- ?x3470 1)))
(let (($x3505 (> 0 x_beta)))
(let ((?x312 (store (store (store (store ?x211 0 0) 1 31) 2 61) 3 92)))
(let ((?x320 (store (store (store (store ?x312 4 122) 5 153) 6 184) 7 214)))
(let ((?x328 (store (store (store (store ?x320 8 245) 9 275) 10 306) 11 337)))
(let ((?x336 (store (store (store (store ?x328 12 365) 13 396) 14 426) 15 457)))
(let ((?x344 (store (store (store (store ?x336 16 487) 17 518) 18 549) 19 579)))
(let ((?x352 (store (store (store (store ?x344 20 610) 21 640) 22 671) 23 702)))
(let ((?x360 (store (store (store (store ?x352 24 730) 25 761) 26 791) 27 822)))
(let ((?x368 (store (store (store (store ?x360 28 852) 29 883) 30 914) 31 944)))
(let ((?x376 (store (store (store (store ?x368 32 975) 33 1005) 34 1036) 35 1067)))
(let ((?x384 (store (store (store (store ?x376 36 1095) 37 1126) 38 1156) 39 1187)))
(let ((?x392 (store (store (store (store ?x384 40 1217) 41 1248) 42 1279) 43 1309)))
(let ((?x400 (store (store (store (store ?x392 44 1340) 45 1370) 46 1401) 47 1432)))
(let ((?x4716 (+ (select ?x400 ?x3131) (ite $x3505 0 (ite (> x_beta ?x5011) ?x5011 x_beta)))))
(let ((?x4547 (+ (+ ?x4716 ?x1494) 365)))
(let ((?x6736 (+ ?x6873 (* (div ?x4547 1461) 48))))
(let ((?x5069 (+ (+ ?x6736 (- 1 ?x3131)) 24003)))
(let ((?x4389 (select ?x400 1)))
(let ((?x4864 (mod ?x4547 1461)))
(let (($x4110 (>= ?x4864 (+ ?x4389 (ite (> 22803 ?x5069) 1 (ite (<= 25203 ?x5069) (- 1) 0))))))
(let ((?x4942 (ite (> 22803 (+ (+ ?x6736 (- 2 ?x3131)) 24003)) 1 (ite (<= 25203 (+ (+ ?x6736 (- 2 ?x3131)) 24003)) (- 1) 0))))
(let ((?x4598 (select ?x400 2)))
(let ((?x4980 (ite (> 22803 (+ (+ ?x6736 (- 3 ?x3131)) 24003)) 1 (ite (<= 25203 (+ (+ ?x6736 (- 3 ?x3131)) 24003)) (- 1) 0))))
(let ((?x1909 (select ?x400 3)))
(let ((?x6370 (ite (>= ?x4864 (+ ?x1909 ?x4980)) 3 (ite (>= ?x4864 (+ ?x4598 ?x4942)) 2 (ite $x4110 1 0)))))
(let ((?x6559 (ite (> 22803 (+ (+ ?x6736 (- 4 ?x3131)) 24003)) 1 (ite (<= 25203 (+ (+ ?x6736 (- 4 ?x3131)) 24003)) (- 1) 0))))
(let ((?x2001 (select ?x400 4)))
(let ((?x6035 (ite (> 22803 (+ (+ ?x6736 (- 5 ?x3131)) 24003)) 1 (ite (<= 25203 (+ (+ ?x6736 (- 5 ?x3131)) 24003)) (- 1) 0))))
(let ((?x1365 (select ?x400 5)))
(let ((?x5922 (ite (>= ?x4864 (+ ?x1365 ?x6035)) 5 (ite (>= ?x4864 (+ ?x2001 ?x6559)) 4 ?x6370))))
(let ((?x4856 (ite (> 22803 (+ (+ ?x6736 (- 6 ?x3131)) 24003)) 1 (ite (<= 25203 (+ (+ ?x6736 (- 6 ?x3131)) 24003)) (- 1) 0))))
(let ((?x680 (select ?x400 6)))
(let ((?x3108 (ite (> 22803 (+ (+ ?x6736 (- 7 ?x3131)) 24003)) 1 (ite (<= 25203 (+ (+ ?x6736 (- 7 ?x3131)) 24003)) (- 1) 0))))
(let ((?x1858 (select ?x400 7)))
(let ((?x6697 (ite (>= ?x4864 (+ ?x1858 ?x3108)) 7 (ite (>= ?x4864 (+ ?x680 ?x4856)) 6 ?x5922))))
(let ((?x6717 (ite (> 22803 (+ (+ ?x6736 (- 8 ?x3131)) 24003)) 1 (ite (<= 25203 (+ (+ ?x6736 (- 8 ?x3131)) 24003)) (- 1) 0))))
(let ((?x4068 (select ?x400 8)))
(let ((?x5883 (ite (> 22803 (+ (+ ?x6736 (- 9 ?x3131)) 24003)) 1 (ite (<= 25203 (+ (+ ?x6736 (- 9 ?x3131)) 24003)) (- 1) 0))))
(let ((?x3809 (select ?x400 9)))
(let ((?x6774 (ite (>= ?x4864 (+ ?x3809 ?x5883)) 9 (ite (>= ?x4864 (+ ?x4068 ?x6717)) 8 ?x6697))))
(let ((?x6797 (ite (> 22803 (+ (+ ?x6736 (- 10 ?x3131)) 24003)) 1 (ite (<= 25203 (+ (+ ?x6736 (- 10 ?x3131)) 24003)) (- 1) 0))))
(let ((?x3610 (select ?x400 10)))
(let ((?x6824 (ite (> 22803 (+ (+ ?x6736 (- 11 ?x3131)) 24003)) 1 (ite (<= 25203 (+ (+ ?x6736 (- 11 ?x3131)) 24003)) (- 1) 0))))
(let ((?x4043 (select ?x400 11)))
(let ((?x6851 (ite (>= ?x4864 (+ ?x4043 ?x6824)) 11 (ite (>= ?x4864 (+ ?x3610 ?x6797)) 10 ?x6774))))
(let ((?x5340 (ite (> 22803 (+ (+ ?x6736 (- 12 ?x3131)) 24003)) 1 (ite (<= 25203 (+ (+ ?x6736 (- 12 ?x3131)) 24003)) (- 1) 0))))
(let ((?x3365 (select ?x400 12)))
(let ((?x5945 (ite (> 22803 (+ (+ ?x6736 (- 13 ?x3131)) 24003)) 1 (ite (<= 25203 (+ (+ ?x6736 (- 13 ?x3131)) 24003)) (- 1) 0))))
(let ((?x4390 (select ?x400 13)))
(let ((?x6545 (ite (>= ?x4864 (+ ?x4390 ?x5945)) 13 (ite (>= ?x4864 (+ ?x3365 ?x5340)) 12 ?x6851))))
(let ((?x5939 (ite (> 22803 (+ (+ ?x6736 (- 14 ?x3131)) 24003)) 1 (ite (<= 25203 (+ (+ ?x6736 (- 14 ?x3131)) 24003)) (- 1) 0))))
(let ((?x4887 (select ?x400 14)))
(let ((?x4929 (ite (> 22803 (+ (+ ?x6736 (- 15 ?x3131)) 24003)) 1 (ite (<= 25203 (+ (+ ?x6736 (- 15 ?x3131)) 24003)) (- 1) 0))))
(let ((?x6278 (select ?x400 15)))
(let ((?x6619 (ite (>= ?x4864 (+ ?x6278 ?x4929)) 15 (ite (>= ?x4864 (+ ?x4887 ?x5939)) 14 ?x6545))))
(let ((?x6123 (ite (> 22803 (+ (+ ?x6736 (- 16 ?x3131)) 24003)) 1 (ite (<= 25203 (+ (+ ?x6736 (- 16 ?x3131)) 24003)) (- 1) 0))))
(let ((?x3980 (select ?x400 16)))
(let ((?x5158 (ite (> 22803 (+ (+ ?x6736 (- 17 ?x3131)) 24003)) 1 (ite (<= 25203 (+ (+ ?x6736 (- 17 ?x3131)) 24003)) (- 1) 0))))
(let ((?x5343 (select ?x400 17)))
(let ((?x5594 (ite (>= ?x4864 (+ ?x5343 ?x5158)) 17 (ite (>= ?x4864 (+ ?x3980 ?x6123)) 16 ?x6619))))
(let ((?x6592 (ite (> 22803 (+ (+ ?x6736 (- 18 ?x3131)) 24003)) 1 (ite (<= 25203 (+ (+ ?x6736 (- 18 ?x3131)) 24003)) (- 1) 0))))
(let ((?x6875 (select ?x400 18)))
(let ((?x3664 (ite (> 22803 (+ (+ ?x6736 (- 19 ?x3131)) 24003)) 1 (ite (<= 25203 (+ (+ ?x6736 (- 19 ?x3131)) 24003)) (- 1) 0))))
(let ((?x536 (select ?x400 19)))
(let ((?x1271 (ite (>= ?x4864 (+ ?x536 ?x3664)) 19 (ite (>= ?x4864 (+ ?x6875 ?x6592)) 18 ?x5594))))
(let ((?x6460 (ite (> 22803 (+ (+ ?x6736 (- 20 ?x3131)) 24003)) 1 (ite (<= 25203 (+ (+ ?x6736 (- 20 ?x3131)) 24003)) (- 1) 0))))
(let ((?x2973 (select ?x400 20)))
(let ((?x4198 (ite (> 22803 (+ (+ ?x6736 (- 21 ?x3131)) 24003)) 1 (ite (<= 25203 (+ (+ ?x6736 (- 21 ?x3131)) 24003)) (- 1) 0))))
(let ((?x5687 (select ?x400 21)))
(let ((?x6856 (ite (>= ?x4864 (+ ?x5687 ?x4198)) 21 (ite (>= ?x4864 (+ ?x2973 ?x6460)) 20 ?x1271))))
(let ((?x6806 (ite (> 22803 (+ (+ ?x6736 (- 22 ?x3131)) 24003)) 1 (ite (<= 25203 (+ (+ ?x6736 (- 22 ?x3131)) 24003)) (- 1) 0))))
(let ((?x1621 (select ?x400 22)))
(let ((?x6843 (ite (> 22803 (+ (+ ?x6736 (- 23 ?x3131)) 24003)) 1 (ite (<= 25203 (+ (+ ?x6736 (- 23 ?x3131)) 24003)) (- 1) 0))))
(let ((?x4868 (select ?x400 23)))
(let ((?x6183 (ite (>= ?x4864 (+ ?x4868 ?x6843)) 23 (ite (>= ?x4864 (+ ?x1621 ?x6806)) 22 ?x6856))))
(let ((?x6704 (ite (> 22803 (+ (+ ?x6736 (- 24 ?x3131)) 24003)) 1 (ite (<= 25203 (+ (+ ?x6736 (- 24 ?x3131)) 24003)) (- 1) 0))))
(let ((?x4428 (select ?x400 24)))
(let ((?x1999 (ite (> 22803 (+ (+ ?x6736 (- 25 ?x3131)) 24003)) 1 (ite (<= 25203 (+ (+ ?x6736 (- 25 ?x3131)) 24003)) (- 1) 0))))
(let ((?x4346 (select ?x400 25)))
(let ((?x5799 (ite (>= ?x4864 (+ ?x4346 ?x1999)) 25 (ite (>= ?x4864 (+ ?x4428 ?x6704)) 24 ?x6183))))
(let ((?x6709 (ite (> 22803 (+ (+ ?x6736 (- 26 ?x3131)) 24003)) 1 (ite (<= 25203 (+ (+ ?x6736 (- 26 ?x3131)) 24003)) (- 1) 0))))
(let ((?x3431 (select ?x400 26)))
(let ((?x5961 (ite (> 22803 (+ (+ ?x6736 (- 27 ?x3131)) 24003)) 1 (ite (<= 25203 (+ (+ ?x6736 (- 27 ?x3131)) 24003)) (- 1) 0))))
(let ((?x3825 (select ?x400 27)))
(let ((?x6537 (ite (>= ?x4864 (+ ?x3825 ?x5961)) 27 (ite (>= ?x4864 (+ ?x3431 ?x6709)) 26 ?x5799))))
(let ((?x4787 (ite (> 22803 (+ (+ ?x6736 (- 28 ?x3131)) 24003)) 1 (ite (<= 25203 (+ (+ ?x6736 (- 28 ?x3131)) 24003)) (- 1) 0))))
(let ((?x4208 (select ?x400 28)))
(let ((?x6084 (ite (> 22803 (+ (+ ?x6736 (- 29 ?x3131)) 24003)) 1 (ite (<= 25203 (+ (+ ?x6736 (- 29 ?x3131)) 24003)) (- 1) 0))))
(let ((?x5905 (select ?x400 29)))
(let ((?x5754 (ite (>= ?x4864 (+ ?x5905 ?x6084)) 29 (ite (>= ?x4864 (+ ?x4208 ?x4787)) 28 ?x6537))))
(let ((?x6188 (ite (> 22803 (+ (+ ?x6736 (- 30 ?x3131)) 24003)) 1 (ite (<= 25203 (+ (+ ?x6736 (- 30 ?x3131)) 24003)) (- 1) 0))))
(let ((?x2488 (select ?x400 30)))
(let ((?x2088 (ite (> 22803 (+ (+ ?x6736 (- 31 ?x3131)) 24003)) 1 (ite (<= 25203 (+ (+ ?x6736 (- 31 ?x3131)) 24003)) (- 1) 0))))
(let ((?x4913 (select ?x400 31)))
(let ((?x4486 (ite (>= ?x4864 (+ ?x4913 ?x2088)) 31 (ite (>= ?x4864 (+ ?x2488 ?x6188)) 30 ?x5754))))
(let ((?x1269 (ite (> 22803 (+ (+ ?x6736 (- 32 ?x3131)) 24003)) 1 (ite (<= 25203 (+ (+ ?x6736 (- 32 ?x3131)) 24003)) (- 1) 0))))
(let ((?x5140 (select ?x400 32)))
(let ((?x4216 (ite (> 22803 (+ (+ ?x6736 (- 33 ?x3131)) 24003)) 1 (ite (<= 25203 (+ (+ ?x6736 (- 33 ?x3131)) 24003)) (- 1) 0))))
(let ((?x3668 (select ?x400 33)))
(let ((?x3846 (ite (>= ?x4864 (+ ?x3668 ?x4216)) 33 (ite (>= ?x4864 (+ ?x5140 ?x1269)) 32 ?x4486))))
(let ((?x5541 (ite (> 22803 (+ (+ ?x6736 (- 34 ?x3131)) 24003)) 1 (ite (<= 25203 (+ (+ ?x6736 (- 34 ?x3131)) 24003)) (- 1) 0))))
(let ((?x5435 (select ?x400 34)))
(let ((?x6706 (ite (> 22803 (+ (+ ?x6736 (- 35 ?x3131)) 24003)) 1 (ite (<= 25203 (+ (+ ?x6736 (- 35 ?x3131)) 24003)) (- 1) 0))))
(let ((?x2236 (select ?x400 35)))
(let ((?x4045 (ite (>= ?x4864 (+ ?x2236 ?x6706)) 35 (ite (>= ?x4864 (+ ?x5435 ?x5541)) 34 ?x3846))))
(let ((?x3023 (ite (> 22803 (+ (+ ?x6736 (- 36 ?x3131)) 24003)) 1 (ite (<= 25203 (+ (+ ?x6736 (- 36 ?x3131)) 24003)) (- 1) 0))))
(let ((?x5669 (select ?x400 36)))
(let ((?x5864 (ite (> 22803 (+ (+ ?x6736 (- 37 ?x3131)) 24003)) 1 (ite (<= 25203 (+ (+ ?x6736 (- 37 ?x3131)) 24003)) (- 1) 0))))
(let ((?x1651 (select ?x400 37)))
(let ((?x1540 (ite (>= ?x4864 (+ ?x1651 ?x5864)) 37 (ite (>= ?x4864 (+ ?x5669 ?x3023)) 36 ?x4045))))
(let ((?x5006 (ite (> 22803 (+ (+ ?x6736 (- 38 ?x3131)) 24003)) 1 (ite (<= 25203 (+ (+ ?x6736 (- 38 ?x3131)) 24003)) (- 1) 0))))
(let ((?x6885 (select ?x400 38)))
(let ((?x6838 (ite (> 22803 (+ (+ ?x6736 (- 39 ?x3131)) 24003)) 1 (ite (<= 25203 (+ (+ ?x6736 (- 39 ?x3131)) 24003)) (- 1) 0))))
(let ((?x1762 (select ?x400 39)))
(let ((?x4869 (ite (>= ?x4864 (+ ?x1762 ?x6838)) 39 (ite (>= ?x4864 (+ ?x6885 ?x5006)) 38 ?x1540))))
(let ((?x3797 (ite (> 22803 (+ (+ ?x6736 (- 40 ?x3131)) 24003)) 1 (ite (<= 25203 (+ (+ ?x6736 (- 40 ?x3131)) 24003)) (- 1) 0))))
(let ((?x4919 (select ?x400 40)))
(let ((?x4025 (ite (> 22803 (+ (+ ?x6736 (- 41 ?x3131)) 24003)) 1 (ite (<= 25203 (+ (+ ?x6736 (- 41 ?x3131)) 24003)) (- 1) 0))))
(let ((?x5927 (select ?x400 41)))
(let ((?x3874 (ite (>= ?x4864 (+ ?x5927 ?x4025)) 41 (ite (>= ?x4864 (+ ?x4919 ?x3797)) 40 ?x4869))))
(let ((?x2970 (ite (> 22803 (+ (+ ?x6736 (- 42 ?x3131)) 24003)) 1 (ite (<= 25203 (+ (+ ?x6736 (- 42 ?x3131)) 24003)) (- 1) 0))))
(let ((?x6631 (select ?x400 42)))
(let ((?x5283 (ite (> 22803 (+ (+ ?x6736 (- 43 ?x3131)) 24003)) 1 (ite (<= 25203 (+ (+ ?x6736 (- 43 ?x3131)) 24003)) (- 1) 0))))
(let ((?x2554 (select ?x400 43)))
(let ((?x6640 (ite (>= ?x4864 (+ ?x2554 ?x5283)) 43 (ite (>= ?x4864 (+ ?x6631 ?x2970)) 42 ?x3874))))
(let ((?x5833 (ite (> 22803 (+ (+ ?x6736 (- 44 ?x3131)) 24003)) 1 (ite (<= 25203 (+ (+ ?x6736 (- 44 ?x3131)) 24003)) (- 1) 0))))
(let ((?x4572 (select ?x400 44)))
(let ((?x5486 (ite (> 22803 (+ (+ ?x6736 (- 45 ?x3131)) 24003)) 1 (ite (<= 25203 (+ (+ ?x6736 (- 45 ?x3131)) 24003)) (- 1) 0))))
(let ((?x6408 (select ?x400 45)))
(let ((?x5835 (ite (>= ?x4864 (+ ?x6408 ?x5486)) 45 (ite (>= ?x4864 (+ ?x4572 ?x5833)) 44 ?x6640))))
(let ((?x798 (ite (> 22803 (+ (+ ?x6736 (- 46 ?x3131)) 24003)) 1 (ite (<= 25203 (+ (+ ?x6736 (- 46 ?x3131)) 24003)) (- 1) 0))))
(let ((?x6783 (select ?x400 46)))
(let ((?x5941 (ite (> 22803 (+ (+ ?x6736 (- 47 ?x3131)) 24003)) 1 (ite (<= 25203 (+ (+ ?x6736 (- 47 ?x3131)) 24003)) (- 1) 0))))
(let ((?x5717 (select ?x400 47)))
(let ((?x11121 (ite (>= ?x4864 (+ ?x5717 ?x5941)) 47 (ite (>= ?x4864 (+ ?x6783 ?x798)) 46 ?x5835))))
(let ((?x2283 (+ ?x6736 (- ?x11121 ?x3131))))
(let ((?x3714 (+ ?x2283 24003)))
(let ((?x3292 (+ (select ?x400 ?x11121) (ite (> 22803 ?x3714) 1 (ite (<= 25203 ?x3714) (- 1) 0)))))
(let ((?x1815 (- ?x4864 ?x3292)))
(let ((?x3207 (ite (or (= 22802 ?x3714) (= 25202 ?x3714)) 28 (select ?x306 ?x11121))))
(let (($x6729 (= y_beta (ite (= 1 (ite (>= ?x1815 ?x3207) 1 0)) (- ?x1815 ?x3207) ?x1815))))
(not (and (= y_months (+ ?x2283 (ite (>= ?x1815 ?x3207) 1 0))) $x6729))))))))))))))))))))))))))))))))))))))))))))))))))))))))))))))))))))))))))))))))))))))))))))))))))))))))))))))))))))))))))))))))))))))))))))))))))))))))))))))))))))))))))))))))))))))))))))))))))))))
(check-sat)
